543 5
10 10 10 10 10 

0 0 0 0 0 0 5 2 14 26 38 50 
0 0 0 0 0 0 2 3 6 
10 1 0 0 0 0 3 12 11 4 
9 2 0 0 0 0 1 5 
6 1 0 0 0 0 3 10 9 7 
4 4 0 0 0 0 3 10 9 7 
4 3 0 0 0 0 1 8 
2 2 0 0 0 0 1 13 
2 6 0 0 0 0 1 13 
3 2 0 0 0 0 2 13 464 
8 2 0 0 0 0 1 13 
9 2 0 0 0 0 1 13 
0 0 0 0 0 0 1 62 
0 0 0 0 0 0 1 15 
7 1 0 0 0 0 2 17 16 
1 4 0 0 0 0 2 19 18 
10 3 0 0 0 0 2 19 18 
9 3 0 0 0 0 3 24 22 20 
10 2 0 0 0 0 3 24 21 20 
2 3 0 0 0 0 1 23 
3 2 0 0 0 0 1 23 
4 3 0 0 0 0 1 23 
3 1 0 0 0 0 2 25 428 
2 3 0 0 0 0 1 25 
0 0 0 0 0 0 1 62 
0 0 0 0 0 0 3 27 30 32 
9 0 0 1 0 0 2 35 28 
1 0 0 2 0 0 2 36 29 
8 0 0 3 0 0 2 33 31 
7 0 0 2 0 0 2 35 33 
1 0 0 3 0 0 1 34 
9 0 0 6 0 0 2 35 452 
4 0 0 2 0 0 1 37 
5 0 0 2 0 0 1 37 
4 0 0 1 0 0 1 37 
7 0 0 3 0 0 1 37 
0 0 0 0 0 0 1 62 
0 0 0 0 0 0 3 39 41 44 
5 0 0 0 1 0 3 48 42 40 
7 0 0 0 2 0 2 47 43 
10 0 0 0 4 0 2 48 42 
9 0 0 0 1 0 2 47 46 
10 0 0 0 5 0 1 45 
5 0 0 0 4 0 1 45 
3 0 0 0 2 0 1 46 
10 0 0 0 1 0 1 49 
10 0 0 0 1 0 2 49 263 
5 0 0 0 4 0 1 49 
0 0 0 0 0 0 1 62 
0 0 0 0 0 0 2 51 54 
2 0 0 1 0 0 3 58 53 52 
1 0 0 3 0 0 3 57 55 326 
2 0 0 3 0 0 2 60 56 
3 0 0 4 0 0 1 55 
4 0 0 1 0 0 1 56 
6 0 0 1 0 0 1 59 
10 0 0 3 0 0 1 60 
8 0 0 3 0 0 1 59 
2 0 0 3 0 0 1 61 
7 0 0 3 0 0 1 61 
0 0 0 0 0 0 1 62 
0 0 0 0 0 0 5 63 75 117 159 201 
0 0 0 0 0 0 3 64 65 67 
7 1 0 0 0 0 3 70 68 66 
2 2 0 0 0 0 2 68 66 
8 4 0 0 0 0 2 72 69 
7 3 0 0 0 0 2 71 70 
9 4 0 0 0 0 1 69 
10 2 0 0 0 0 1 71 
6 3 0 0 0 0 1 72 
3 2 0 0 0 0 2 73 292 
1 1 0 0 0 0 1 73 
9 3 0 0 0 0 1 74 
0 0 0 0 0 0 5 243 275 307 339 371 
0 0 0 0 0 0 2 76 79 
5 0 1 1 1 1 1 77 
3 0 2 1 5 3 3 109 81 78 
1 0 1 6 3 3 4 99 87 85 80 
9 0 3 3 6 2 2 85 83 
7 0 4 1 1 2 1 82 
8 0 2 1 1 3 4 102 99 86 84 
5 0 1 2 3 1 2 86 83 
4 0 5 3 2 3 2 102 84 
4 0 3 3 1 2 3 103 97 88 
2 0 3 1 3 3 2 103 86 
5 0 1 3 1 2 3 97 92 89 
7 0 3 2 2 4 4 103 97 92 90 
2 0 2 4 1 1 2 92 89 
4 0 1 3 2 1 2 106 90 
6 0 2 3 2 2 1 91 
10 0 1 3 1 5 5 115 114 108 101 93 
10 0 4 3 4 1 3 108 101 93 
2 0 3 2 2 2 2 113 94 
2 0 2 6 4 1 2 105 95 
10 0 2 1 4 1 1 96 
5 0 1 2 2 2 1 98 
10 0 2 2 3 2 1 98 
5 0 5 2 3 4 2 112 100 
9 0 2 3 4 4 2 103 100 
3 0 2 2 2 1 2 111 104 
9 0 3 5 3 4 2 112 105 
4 0 1 3 3 2 2 112 103 
5 0 5 3 2 2 2 111 110 
8 0 1 2 3 3 1 107 
9 0 1 3 1 2 2 107 181 
5 0 3 4 3 5 1 107 
7 0 3 2 1 2 1 110 
5 0 3 3 3 2 1 112 
3 0 6 1 2 3 1 110 
9 0 1 3 3 2 1 116 
1 0 1 2 2 3 1 116 
2 0 4 1 3 5 1 116 
6 0 2 1 1 4 1 116 
7 0 4 3 3 1 1 116 
7 0 4 1 4 4 1 116 
0 0 0 0 0 0 1 543 
0 0 0 0 0 0 2 118 121 
3 1 1 1 0 1 1 119 
6 1 2 2 0 2 3 151 123 120 
6 2 2 3 0 1 4 138 129 127 122 
10 2 2 1 0 1 2 127 125 
2 1 3 2 0 5 1 124 
10 2 3 4 0 2 4 144 138 128 126 
5 2 2 2 0 3 2 128 125 
4 1 3 1 0 2 2 144 126 
6 2 3 4 0 3 3 145 140 130 
7 2 2 3 0 5 2 145 128 
10 5 5 1 0 3 3 140 134 131 
2 3 2 1 0 5 4 145 140 134 132 
7 6 2 3 0 5 2 134 131 
7 2 1 2 0 1 2 148 132 
3 3 2 2 0 3 1 133 
9 6 3 4 0 1 5 157 156 150 143 135 
8 2 7 2 0 2 3 150 143 135 
2 3 2 2 0 3 2 155 136 
6 1 1 3 0 1 2 147 137 
3 3 2 1 0 4 1 139 
7 4 1 3 0 1 3 147 145 142 
7 1 3 2 0 2 1 141 
9 3 5 3 0 1 1 141 
2 3 2 1 0 2 2 154 142 
7 2 3 4 0 1 2 153 146 
4 1 1 2 0 3 2 154 147 
1 1 3 2 0 2 2 154 145 
1 2 2 3 0 5 2 153 152 
10 2 2 1 0 2 1 149 
4 1 4 2 0 2 1 149 
4 3 3 2 0 3 1 149 
8 4 2 4 0 3 1 152 
9 1 3 2 0 2 1 154 
4 3 3 3 0 4 1 152 
4 2 5 6 0 1 1 158 
7 5 2 6 0 1 1 158 
5 2 2 3 0 4 2 158 261 
2 3 2 3 0 3 1 158 
5 3 1 2 0 2 1 158 
6 4 1 2 0 3 1 158 
0 0 0 0 0 0 1 543 
0 0 0 0 0 0 2 160 162 
3 0 1 1 1 1 1 161 
3 0 3 2 1 1 2 164 163 
1 0 3 2 2 4 1 163 
9 0 4 4 4 4 4 177 169 167 166 
7 0 1 2 3 4 3 169 167 165 
8 0 1 1 2 2 1 166 
8 0 2 2 4 3 3 173 172 168 
7 0 4 2 6 3 3 180 172 171 
2 0 3 2 1 3 2 180 170 
5 0 2 2 5 3 2 172 171 
1 0 2 1 2 4 1 171 
3 0 2 3 2 2 3 183 181 174 
6 0 1 1 1 3 3 183 181 174 
6 0 5 3 1 3 3 183 181 174 
5 0 3 3 6 2 2 178 175 
8 0 2 2 5 3 1 176 
3 0 2 5 3 2 4 195 187 186 179 
5 0 2 2 4 2 4 188 186 184 180 
4 0 1 4 3 2 2 187 179 
9 0 3 2 1 3 1 182 
7 0 3 3 1 1 4 195 193 189 183 
10 0 3 4 3 4 3 195 190 184 
9 0 2 4 3 1 2 188 184 
8 0 2 2 2 4 2 192 187 
3 0 3 2 1 1 1 185 
4 0 2 2 1 4 2 193 189 
3 0 4 3 1 3 2 191 189 
9 0 1 2 2 1 1 190 
9 0 1 3 3 2 1 190 
3 0 1 2 5 2 2 199 192 
6 0 5 4 4 1 1 191 
8 0 4 2 2 2 3 199 198 194 
6 0 1 2 1 1 2 198 194 
8 0 3 2 2 4 2 199 198 
2 0 2 5 2 2 1 196 
6 0 4 2 1 5 1 196 
2 0 1 2 2 3 1 197 
5 0 7 1 2 2 2 200 535 
4 0 2 5 1 2 1 200 
4 0 2 2 4 1 1 200 
0 0 0 0 0 0 1 543 
0 0 0 0 0 0 2 202 204 
6 1 0 1 1 1 1 203 
8 3 0 1 2 2 2 206 205 
3 2 0 2 4 2 1 205 
1 3 0 4 5 2 4 217 211 209 208 
6 2 0 3 2 2 3 211 209 207 
1 2 0 3 2 2 1 208 
6 2 0 2 1 6 3 215 213 210 
10 1 0 3 1 2 3 221 215 214 
1 1 0 3 1 1 2 221 212 
8 4 0 6 5 2 2 215 214 
4 2 0 1 3 3 1 214 
9 5 0 1 5 2 1 214 
6 3 0 1 4 2 2 223 216 
2 1 0 2 2 3 2 223 216 
3 3 0 4 1 2 3 225 220 218 
8 1 0 3 4 5 3 226 222 221 
1 2 0 3 3 2 1 219 
2 4 0 4 3 1 5 234 229 226 222 443 
10 3 0 3 2 2 2 229 222 
7 4 0 4 1 3 3 234 228 225 
9 2 0 2 2 2 1 224 
8 2 0 3 3 3 3 234 232 227 
7 3 0 1 3 3 2 230 227 
10 2 0 1 3 3 3 236 231 229 
9 3 0 3 1 3 3 236 232 231 
10 4 0 1 3 5 2 233 228 
1 2 0 3 1 1 2 236 231 
6 1 0 1 3 3 1 232 
5 3 0 3 2 2 1 232 
7 4 0 6 3 5 2 241 235 
6 3 0 2 2 1 1 233 
5 2 0 2 2 1 3 241 240 237 
8 4 0 1 2 3 3 241 240 238 
5 2 0 1 3 3 2 240 237 
9 2 0 3 2 1 2 241 240 
3 2 0 3 2 2 1 238 
9 3 0 2 1 3 1 239 
6 4 0 5 2 3 1 242 
2 2 0 2 4 2 1 242 
3 1 0 1 4 4 1 242 
0 0 0 0 0 0 1 543 
0 0 0 0 0 0 3 244 246 273 
3 1 0 1 1 0 2 272 245 
10 4 0 1 2 0 2 260 247 
3 4 0 3 1 0 2 272 247 
1 1 0 3 2 0 1 248 
5 2 0 3 2 0 3 270 269 249 
8 1 0 3 3 0 1 250 
10 1 0 1 4 0 3 268 267 251 
5 2 0 1 2 0 2 266 252 
6 2 0 2 5 0 1 253 
4 3 0 3 1 0 1 254 
5 2 0 4 2 0 2 265 255 
1 3 0 2 2 0 1 256 
10 1 0 1 2 0 4 264 263 259 257 
6 5 0 2 2 0 2 261 258 
4 3 0 2 5 0 1 262 
3 4 0 4 3 0 2 261 336 
4 1 0 4 3 0 1 271 
4 2 0 4 2 0 1 274 
4 1 0 1 5 0 1 274 
8 4 0 3 2 0 1 274 
6 3 0 5 3 0 1 274 
5 3 0 4 3 0 1 274 
6 4 0 1 1 0 1 274 
3 3 0 1 3 0 1 274 
2 2 0 3 2 0 1 274 
3 2 0 2 2 0 1 274 
8 2 0 2 1 0 1 274 
3 2 0 3 2 0 1 274 
7 4 0 1 3 0 1 274 
4 3 0 5 4 0 1 274 
0 0 0 0 0 0 1 543 
0 0 0 0 0 0 3 276 277 294 
4 0 1 1 0 1 2 305 278 
9 0 2 1 0 3 2 305 278 
3 0 1 2 0 3 2 282 279 
2 0 3 5 0 3 2 286 280 
5 0 2 2 0 1 2 304 281 
3 0 1 4 0 3 2 292 283 
3 0 2 2 0 1 2 286 284 
1 0 2 2 0 2 1 284 
8 0 3 1 0 1 3 298 289 285 
6 0 4 2 0 1 2 295 287 
10 0 2 2 0 4 2 298 287 
5 0 3 1 0 2 1 288 
2 0 1 1 0 3 2 303 290 
10 0 5 3 0 1 3 303 291 524 
2 0 2 4 0 3 1 291 
7 0 3 2 0 6 3 302 297 293 
6 0 3 3 0 5 2 302 293 
3 0 4 2 0 2 3 301 299 296 
8 0 1 2 0 2 3 303 301 297 
4 0 3 3 0 2 1 296 
9 0 2 3 0 4 1 300 
8 0 6 6 0 3 1 299 
8 0 3 3 0 4 1 303 
1 0 3 2 0 2 1 306 
6 0 1 3 0 2 1 306 
9 0 3 3 0 2 1 306 
2 0 4 3 0 1 1 306 
5 0 2 3 0 3 1 306 
8 0 1 2 0 3 1 306 
10 0 2 2 0 2 1 306 
0 0 0 0 0 0 1 543 
0 0 0 0 0 0 3 308 309 315 
6 1 0 0 1 1 2 319 310 
2 2 0 0 4 7 2 319 310 
9 2 0 0 1 1 2 314 311 
9 3 0 0 2 3 2 316 312 
7 1 0 0 3 1 1 313 
4 5 0 0 1 2 3 323 320 317 
5 3 0 0 4 2 2 317 316 
7 6 0 0 2 2 2 319 316 
5 1 0 0 1 3 2 323 318 
9 3 0 0 4 3 1 318 
1 2 0 0 2 3 3 327 325 321 
6 3 0 0 4 3 2 323 321 
6 1 0 0 3 3 3 327 325 322 
8 4 0 0 2 3 1 322 
5 1 0 0 3 3 2 330 324 
1 1 0 0 2 1 2 327 324 
6 2 0 0 1 1 1 326 
4 2 0 0 3 1 1 326 
7 2 0 0 5 2 1 328 
1 5 0 0 1 3 1 328 
8 2 0 0 4 2 3 332 329 535 
5 2 0 0 2 1 5 337 336 335 333 331 
7 5 0 0 2 2 2 333 331 
3 2 0 0 2 2 1 334 
7 1 0 0 5 2 1 333 
1 2 0 0 2 5 1 338 
6 3 0 0 2 5 1 338 
2 2 0 0 3 1 1 338 
3 3 0 0 3 3 1 338 
9 3 0 0 1 4 1 338 
0 0 0 0 0 0 1 543 
0 0 0 0 0 0 3 340 341 343 
1 0 1 0 1 1 1 342 
9 0 3 0 2 7 1 342 
5 0 1 0 3 3 3 346 345 344 
10 0 3 0 4 2 2 346 345 
1 0 2 0 2 1 1 347 
8 0 2 0 1 4 2 349 348 
9 0 3 0 2 2 2 349 348 
7 0 1 0 4 1 2 349 348 
5 0 3 0 6 2 2 351 350 
9 0 3 0 2 1 1 350 
2 0 2 0 4 3 2 354 352 
9 0 2 0 1 4 1 352 
7 0 1 0 5 4 2 355 353 
8 0 1 0 1 3 2 357 356 
10 0 4 0 2 2 1 355 
1 0 1 0 2 2 2 361 358 
2 0 4 0 7 2 2 361 358 
1 0 4 0 3 2 2 361 358 
7 0 2 0 2 1 1 359 
7 0 5 0 1 1 2 360 477 
8 0 5 0 1 3 2 365 362 
6 0 4 0 2 3 1 362 
9 0 3 0 1 3 3 369 364 363 
7 0 4 0 2 2 2 368 367 
5 0 2 0 2 2 1 366 
7 0 3 0 3 4 1 366 
10 0 2 0 3 1 1 370 
8 0 1 0 1 3 1 370 
4 0 2 0 2 4 1 370 
7 0 1 0 3 2 1 370 
0 0 0 0 0 0 1 543 
0 0 0 0 0 0 3 372 373 374 
10 0 0 0 1 0 2 376 375 
2 0 0 0 3 0 2 376 375 
5 0 0 0 3 0 2 375 446 
4 0 0 0 3 0 2 379 377 
3 0 0 0 5 0 2 381 380 
5 0 0 0 2 0 1 378 
6 0 0 0 3 0 1 380 
1 0 0 0 2 0 1 381 
9 0 0 0 2 0 1 382 
7 0 0 0 1 0 1 382 
0 0 0 0 0 0 5 383 405 427 439 461 
0 0 0 0 0 0 2 384 403 
7 0 1 0 0 1 2 402 385 
6 0 2 0 0 2 3 401 400 386 
6 0 2 0 0 3 3 399 398 387 
9 0 4 0 0 2 2 397 388 
9 0 1 0 0 4 1 389 
6 0 2 0 0 3 3 396 390 435 
10 0 2 0 0 2 3 395 394 391 
1 0 1 0 0 2 1 392 
3 0 2 0 0 2 1 393 
10 0 3 0 0 1 1 404 
2 0 4 0 0 4 1 404 
1 0 4 0 0 1 1 404 
3 0 2 0 0 3 1 404 
6 0 3 0 0 1 1 404 
8 0 2 0 0 4 1 404 
7 0 5 0 0 4 1 404 
1 0 1 0 0 1 1 404 
1 0 4 0 0 3 1 404 
10 0 2 0 0 1 1 404 
4 0 3 0 0 6 1 404 
0 0 0 0 0 0 1 543 
0 0 0 0 0 0 8 406 419 420 421 422 423 424 425 
1 0 1 0 1 0 1 407 
4 0 2 0 5 0 2 418 408 
7 0 3 0 1 0 2 417 409 
3 0 2 0 5 0 2 416 410 
1 0 2 0 3 0 1 411 
9 0 1 0 2 0 1 412 
10 0 2 0 3 0 1 413 
2 0 2 0 5 0 1 414 
8 0 3 0 3 0 1 415 
10 0 5 0 1 0 1 426 
4 0 2 0 4 0 1 426 
9 0 3 0 2 0 1 426 
1 0 2 0 1 0 1 426 
3 0 2 0 2 0 1 426 
5 0 2 0 4 0 1 426 
2 0 3 0 2 0 1 426 
10 0 5 0 3 0 1 426 
4 0 3 0 1 0 1 426 
4 0 2 0 1 0 2 426 462 
10 0 3 0 1 0 1 426 
0 0 0 0 0 0 1 543 
0 0 0 0 0 0 4 428 431 436 437 
7 0 0 0 0 1 1 429 
8 0 0 0 0 2 2 435 430 
4 0 0 0 0 4 2 434 432 
9 0 0 0 0 1 2 434 433 
5 0 0 0 0 2 1 433 
1 0 0 0 0 5 1 438 
2 0 0 0 0 4 1 438 
3 0 0 0 0 1 2 438 473 
5 0 0 0 0 4 1 438 
8 0 0 0 0 1 1 438 
0 0 0 0 0 0 5 483 495 507 519 531 
0 0 0 0 0 0 2 440 442 
4 0 0 1 0 1 2 446 441 
6 0 0 2 0 4 2 450 443 
3 0 0 2 0 2 2 450 443 
1 0 0 2 0 3 3 455 454 444 
8 0 0 3 0 3 3 453 447 445 
8 0 0 2 0 1 3 458 457 448 
9 0 0 1 0 1 3 459 457 449 
7 0 0 4 0 4 2 457 451 
3 0 0 6 0 2 1 449 
9 0 0 3 0 1 1 451 
4 0 0 2 0 3 2 459 457 
9 0 0 3 0 5 1 452 
9 0 0 1 0 2 1 456 
6 0 0 2 0 2 1 458 
6 0 0 1 0 1 1 459 
9 0 0 1 0 4 1 458 
6 0 0 2 0 4 1 460 
7 0 0 5 0 2 2 460 539 
1 0 0 6 0 2 1 460 
9 0 0 1 0 3 1 460 
0 0 0 0 0 0 1 543 
0 0 0 0 0 0 3 462 463 465 
7 0 1 1 0 0 2 470 464 
7 0 4 1 0 0 4 476 471 470 468 
10 0 3 7 0 0 2 476 466 
9 0 3 3 0 0 3 471 470 468 
8 0 2 3 0 0 3 471 467 510 
5 0 1 4 0 0 1 468 
10 0 1 1 0 0 1 469 
5 0 3 1 0 0 4 479 478 474 472 
10 0 2 3 0 0 4 479 475 474 473 
2 0 3 2 0 0 2 479 472 
1 0 2 3 0 0 1 473 
3 0 2 6 0 0 1 477 
8 0 4 1 0 0 1 477 
3 0 4 2 0 0 1 478 
3 0 3 2 0 0 1 478 
5 0 1 2 0 0 1 480 
10 0 4 2 0 0 1 480 
3 0 4 2 0 0 1 481 
6 0 2 3 0 0 1 482 
10 0 1 1 0 0 1 482 
0 0 0 0 0 0 1 543 
0 0 0 0 0 0 4 484 487 489 493 
2 0 1 0 0 0 1 485 
10 0 2 0 0 0 1 486 
6 0 4 0 0 0 3 492 491 488 
4 0 2 0 0 0 3 491 488 521 
4 0 5 0 0 0 1 490 
5 0 1 0 0 0 1 490 
7 0 2 0 0 0 1 494 
9 0 3 0 0 0 1 494 
9 0 4 0 0 0 1 494 
3 0 1 0 0 0 1 494 
0 0 0 0 0 0 1 543 
0 0 0 0 0 0 3 496 498 499 
8 0 0 0 1 0 1 497 
9 0 0 0 2 0 3 505 501 500 
2 0 0 0 4 0 3 505 500 520 
8 0 0 0 2 0 2 504 501 
4 0 0 0 2 0 2 504 503 
6 0 0 0 3 0 1 502 
1 0 0 0 2 0 1 503 
1 0 0 0 3 0 1 506 
9 0 0 0 4 0 1 506 
9 0 0 0 2 0 1 506 
0 0 0 0 0 0 1 543 
0 0 0 0 0 0 4 508 509 510 513 
7 0 0 1 0 0 2 517 511 
10 0 0 1 0 0 2 516 511 
3 0 0 3 0 0 1 511 
7 0 0 3 0 0 1 512 
3 0 0 3 0 0 2 514 526 
9 0 0 3 0 0 1 514 
6 0 0 1 0 0 1 515 
4 0 0 3 0 0 1 518 
8 0 0 5 0 0 1 518 
8 0 0 2 0 0 1 518 
0 0 0 0 0 0 1 543 
0 0 0 0 0 0 2 520 521 
10 0 0 1 0 0 1 522 
9 0 0 2 0 0 1 522 
6 0 0 6 0 0 1 523 
5 0 0 2 0 0 3 526 525 524 
10 0 0 3 0 0 3 529 528 527 
3 0 0 2 0 0 3 529 528 527 
4 0 0 3 0 0 1 527 
2 0 0 1 0 0 1 530 
2 0 0 3 0 0 2 530 536 
6 0 0 2 0 0 1 530 
0 0 0 0 0 0 1 543 
0 0 0 0 0 0 3 532 533 534 
5 1 0 0 0 0 1 535 
2 3 0 0 0 0 1 535 
8 3 0 0 0 0 1 535 
9 3 0 0 0 0 2 537 536 
7 2 0 0 0 0 2 539 538 
2 3 0 0 0 0 2 541 539 
2 2 0 0 0 0 2 541 540 
9 3 0 0 0 0 1 540 
1 2 0 0 0 0 1 542 
1 3 0 0 0 0 1 542 
0 0 0 0 0 0 1 543 
0 0 0 0 0 0 0 
